
;this file is automatically generated: Fri Jan 03 16:26:56 GMT 2020

;declarations generated

(declare-fun obj_d47dd0a6_aca7_44be_b992_624b79757a10 ( Int) Int)
(declare-fun oclExcludes ( Int Int) Bool)
(declare-fun class17_Class17IntAttr5 ( Int) Int)
(declare-fun class17_Class17IntAttr6 ( Int) Int)
(declare-fun class17_Class17IntAttr4 ( Int) Int)
(declare-fun Cardinality ( Int) Int)
(declare-fun class17_Class17BoolAttr0 ( Int) Bool)
(declare-fun class17_Class17BoolAttr1 ( Int) Bool)
(declare-fun class17_Class17BoolAttr2 ( Int) Bool)
(declare-fun type_b6fd4122_e228_42fc_9887_8a50c2e6ea59_Class17 ( Int) Bool)
(declare-fun oclSelect ( Int Bool) Int)
(declare-fun Enum0 ( Int) Int)
(declare-fun Enum1 ( Int) Int)
(declare-fun Enum2 ( Int) Int)
(declare-fun container_ ( Int) Int)
(declare-fun oclIncludes ( Int Int) Bool)
(declare-fun ObjAt ( Int Int) Int)

;formula(s) generated
(assert (forall ((p Int)) (=> ( type_b6fd4122_e228_42fc_9887_8a50c2e6ea59_Class17 p )  (and (>= ( Enum2 ( obj_d47dd0a6_aca7_44be_b992_624b79757a10 p )  )  0) (<= ( Enum2 ( obj_d47dd0a6_aca7_44be_b992_624b79757a10 p )  )  6)))))
(assert (forall ((p Int)) (=> ( type_b6fd4122_e228_42fc_9887_8a50c2e6ea59_Class17 p )  (and (>= ( Enum1 ( obj_d47dd0a6_aca7_44be_b992_624b79757a10 p )  )  0) (<= ( Enum1 ( obj_d47dd0a6_aca7_44be_b992_624b79757a10 p )  )  5)))))
(assert (! (or (or (forall ((c7_2 Int)(c7_1 Int)) (=> (and ( type_b6fd4122_e228_42fc_9887_8a50c2e6ea59_Class17 c7_1 )  ( type_b6fd4122_e228_42fc_9887_8a50c2e6ea59_Class17 c7_2 ) ) (>= ( class17_Class17IntAttr6 ( obj_d47dd0a6_aca7_44be_b992_624b79757a10 c7_1 )  )  ( class17_Class17IntAttr5 ( obj_d47dd0a6_aca7_44be_b992_624b79757a10 c7_2 )  ) ))) (forall ((v Int)) (=> ( type_b6fd4122_e228_42fc_9887_8a50c2e6ea59_Class17 v )  ( class17_Class17BoolAttr2 ( obj_d47dd0a6_aca7_44be_b992_624b79757a10 v )  ) ))) (and (forall ((v Int)) (=> ( type_b6fd4122_e228_42fc_9887_8a50c2e6ea59_Class17 v )  ( class17_Class17BoolAttr1 ( obj_d47dd0a6_aca7_44be_b992_624b79757a10 v )  ) )) (forall ((c7_2 Int)(c7_1 Int)) (=> (and ( type_b6fd4122_e228_42fc_9887_8a50c2e6ea59_Class17 c7_1 )  ( type_b6fd4122_e228_42fc_9887_8a50c2e6ea59_Class17 c7_2 ) ) (= ( class17_Class17IntAttr6 ( obj_d47dd0a6_aca7_44be_b992_624b79757a10 c7_1 )  )  ( class17_Class17IntAttr4 ( obj_d47dd0a6_aca7_44be_b992_624b79757a10 c7_2 )  ) ))))):named l0))
(assert (! (forall ((v Int)) (=> ( type_b6fd4122_e228_42fc_9887_8a50c2e6ea59_Class17 v )  (or (> ( class17_Class17IntAttr4 ( obj_d47dd0a6_aca7_44be_b992_624b79757a10 v )  )  1) (or (forall ((c7_2 Int)(c7_1 Int)) (=> (and ( type_b6fd4122_e228_42fc_9887_8a50c2e6ea59_Class17 c7_1 )  ( type_b6fd4122_e228_42fc_9887_8a50c2e6ea59_Class17 c7_2 ) ) (not (= ( class17_Class17IntAttr5 ( obj_d47dd0a6_aca7_44be_b992_624b79757a10 c7_1 )  )  ( class17_Class17IntAttr6 ( obj_d47dd0a6_aca7_44be_b992_624b79757a10 c7_2 )  ) ) ))) (forall ((v Int)) (=> ( type_b6fd4122_e228_42fc_9887_8a50c2e6ea59_Class17 v )  (not (= ( Enum2 ( obj_d47dd0a6_aca7_44be_b992_624b79757a10 v )  )  4) ))))))):named l1))
(assert (! (forall ((v Int)) (=> ( type_b6fd4122_e228_42fc_9887_8a50c2e6ea59_Class17 v )  (or (>= ( class17_Class17IntAttr4 ( obj_d47dd0a6_aca7_44be_b992_624b79757a10 v )  )  5) (and (forall ((c7_2 Int)(c7_1 Int)) (=> (and ( type_b6fd4122_e228_42fc_9887_8a50c2e6ea59_Class17 c7_1 )  ( type_b6fd4122_e228_42fc_9887_8a50c2e6ea59_Class17 c7_2 ) ) (>= ( class17_Class17IntAttr4 ( obj_d47dd0a6_aca7_44be_b992_624b79757a10 c7_1 )  )  ( class17_Class17IntAttr6 ( obj_d47dd0a6_aca7_44be_b992_624b79757a10 c7_2 )  ) ))) (forall ((v Int)) (=> ( type_b6fd4122_e228_42fc_9887_8a50c2e6ea59_Class17 v )  (= ( Enum1 ( obj_d47dd0a6_aca7_44be_b992_624b79757a10 v )  )  3))))))):named l2))
(assert (! (exists ((c1 Int)(c2 Int)) (and (and ( type_b6fd4122_e228_42fc_9887_8a50c2e6ea59_Class17 c1 )  ( type_b6fd4122_e228_42fc_9887_8a50c2e6ea59_Class17 c2 ) ) (forall ((v Int)) (=> ( type_b6fd4122_e228_42fc_9887_8a50c2e6ea59_Class17 v )  (< ( class17_Class17IntAttr6 ( obj_d47dd0a6_aca7_44be_b992_624b79757a10 v )  )  ( class17_Class17IntAttr4 ( obj_d47dd0a6_aca7_44be_b992_624b79757a10 c1 )  ) ))))):named l3))
(assert (! (or (forall ((v Int)) (=> ( type_b6fd4122_e228_42fc_9887_8a50c2e6ea59_Class17 v )  ( class17_Class17BoolAttr2 ( obj_d47dd0a6_aca7_44be_b992_624b79757a10 v )  ) )) (forall ((v Int)) (=> ( type_b6fd4122_e228_42fc_9887_8a50c2e6ea59_Class17 v )  ( class17_Class17BoolAttr0 ( obj_d47dd0a6_aca7_44be_b992_624b79757a10 v )  ) ))):named l4))
(assert (! (exists ((c1 Int)) (and ( type_b6fd4122_e228_42fc_9887_8a50c2e6ea59_Class17 c1 )  ( class17_Class17BoolAttr2 ( obj_d47dd0a6_aca7_44be_b992_624b79757a10 c1 )  ) )):named l5))
(assert (! (forall ((c7_2 Int)(c7_1 Int)) (=> (and ( type_b6fd4122_e228_42fc_9887_8a50c2e6ea59_Class17 c7_1 )  ( type_b6fd4122_e228_42fc_9887_8a50c2e6ea59_Class17 c7_2 ) ) (= ( class17_Class17IntAttr5 ( obj_d47dd0a6_aca7_44be_b992_624b79757a10 c7_1 )  )  ( class17_Class17IntAttr6 ( obj_d47dd0a6_aca7_44be_b992_624b79757a10 c7_2 )  ) ))):named l6))
(assert (! (forall ((v Int)) (=> ( type_b6fd4122_e228_42fc_9887_8a50c2e6ea59_Class17 v )  (<= ( class17_Class17IntAttr6 ( obj_d47dd0a6_aca7_44be_b992_624b79757a10 v )  )  9))):named l7))
(assert (! (or (forall ((v Int)) (=> ( type_b6fd4122_e228_42fc_9887_8a50c2e6ea59_Class17 v )  ( class17_Class17BoolAttr0 ( obj_d47dd0a6_aca7_44be_b992_624b79757a10 v )  ) )) (forall ((v Int)) (=> ( type_b6fd4122_e228_42fc_9887_8a50c2e6ea59_Class17 v )  ( class17_Class17BoolAttr2 ( obj_d47dd0a6_aca7_44be_b992_624b79757a10 v )  ) ))):named l8))
(assert (exists ((o Int)) ( type_b6fd4122_e228_42fc_9887_8a50c2e6ea59_Class17 ( obj_d47dd0a6_aca7_44be_b992_624b79757a10 o )  ) ))

 ;end of formula 